<?xml version = "1.0" standalone="yes"?>
<!-- This file has been generated by DOcplex version 2.23.222  -->
<CPLEXSolution version="1.0">
 <header
   problemName="CVRP"
   objectiveValue="22304.5"
  />
 <variables>
  <variable name="x_0_1" index="0" value="1.00000"/>
  <variable name="x_0_5" index="4" value="1.00000"/>
  <variable name="x_0_6" index="5" value="1.00000"/>
  <variable name="x_0_8" index="7" value="1.00000"/>
  <variable name="x_0_9" index="8" value="1.00000"/>
  <variable name="x_0_11" index="10" value="1.00000"/>
  <variable name="x_0_12" index="11" value="1.00000"/>
  <variable name="x_0_13" index="12" value="1.00000"/>
  <variable name="x_0_14" index="13" value="1.00000"/>
  <variable name="x_0_15" index="14" value="1.00000"/>
  <variable name="x_0_17" index="16" value="1.00000"/>
  <variable name="x_0_20" index="19" value="1.00000"/>
  <variable name="x_0_23" index="22" value="1.00000"/>
  <variable name="x_0_24" index="23" value="1.00000"/>
  <variable name="x_1_0" index="26" value="1.00000"/>
  <variable name="x_2_0" index="52" value="1.00000"/>
  <variable name="x_3_0" index="78" value="1.00000"/>
  <variable name="x_4_0" index="104" value="1.00000"/>
  <variable name="x_5_16" index="145" value="1.00000"/>
  <variable name="x_6_7" index="162" value="1.00000"/>
  <variable name="x_7_0" index="182" value="1.00000"/>
  <variable name="x_8_26" index="233" value="1.00000"/>
  <variable name="x_9_18" index="251" value="1.00000"/>
  <variable name="x_10_0" index="260" value="1.00000"/>
  <variable name="x_11_0" index="286" value="1.00000"/>
  <variable name="x_12_25" index="336" value="1.00000"/>
  <variable name="x_13_22" index="359" value="1.00000"/>
  <variable name="x_14_3" index="367" value="1.00000"/>
  <variable name="x_15_4" index="394" value="1.00000"/>
  <variable name="x_16_0" index="416" value="1.00000"/>
  <variable name="x_17_0" index="442" value="1.00000"/>
  <variable name="x_18_0" index="468" value="1.00000"/>
  <variable name="x_19_0" index="494" value="1.00000"/>
  <variable name="x_20_21" index="540" value="1.00000"/>
  <variable name="x_21_10" index="556" value="1.00000"/>
  <variable name="x_22_0" index="572" value="1.00000"/>
  <variable name="x_23_2" index="600" value="1.00000"/>
  <variable name="x_24_19" index="643" value="1.00000"/>
  <variable name="x_25_0" index="650" value="1.00000"/>
  <variable name="x_26_0" index="676" value="1.00000"/>
  <variable name="u_1" index="702" value="20.00000"/>
  <variable name="u_2" index="703" value="20.00000"/>
  <variable name="u_3" index="704" value="19.00000"/>
  <variable name="u_4" index="705" value="13.00000"/>
  <variable name="u_5" index="706" value="13.00000"/>
  <variable name="u_6" index="707" value="7.00000"/>
  <variable name="u_7" index="708" value="20.00000"/>
  <variable name="u_8" index="709" value="16.00000"/>
  <variable name="u_9" index="710" value="3.00000"/>
  <variable name="u_10" index="711" value="20.00000"/>
  <variable name="u_11" index="712" value="13.00000"/>
  <variable name="u_12" index="713" value="14.00000"/>
  <variable name="u_13" index="714" value="8.00000"/>
  <variable name="u_14" index="715" value="1.00000"/>
  <variable name="u_15" index="716" value="1.00000"/>
  <variable name="u_16" index="717" value="14.00000"/>
  <variable name="u_17" index="718" value="11.00000"/>
  <variable name="u_18" index="719" value="20.00000"/>
  <variable name="u_19" index="720" value="20.00000"/>
  <variable name="u_20" index="721" value="11.00000"/>
  <variable name="u_21" index="722" value="13.00000"/>
  <variable name="u_22" index="723" value="18.00000"/>
  <variable name="u_23" index="724" value="16.00000"/>
  <variable name="u_24" index="725" value="6.00000"/>
  <variable name="u_25" index="726" value="20.00000"/>
  <variable name="u_26" index="727" value="20.00000"/>
 </variables>
</CPLEXSolution>
